; PUSH 0x00 DUP4 DUP6 SUB GT ISZERO => DUP3 DUP5 EQ
(set-option :produce-proofs true)
; 
(set-info :status unknown)
(declare-fun storage_t ((_ BitVec 256) (_ BitVec 256) (_ BitVec 256) (_ BitVec 256) Int (_ BitVec 256)) (_ BitVec 256))
(declare-fun storage_s ((_ BitVec 256) (_ BitVec 256) (_ BitVec 256) (_ BitVec 256) Int (_ BitVec 256)) (_ BitVec 256))
(declare-fun exc_halt_t (Int) Bool)
(declare-fun exc_halt_s (Int) Bool)
(declare-fun sc_t (Int) (_ BitVec 6))
(declare-fun stack_t ((_ BitVec 256) (_ BitVec 256) (_ BitVec 256) (_ BitVec 256) Int (_ BitVec 6)) (_ BitVec 256))
(declare-fun stack_s ((_ BitVec 256) (_ BitVec 256) (_ BitVec 256) (_ BitVec 256) Int (_ BitVec 6)) (_ BitVec 256))
(declare-fun sc_s (Int) (_ BitVec 6))
(declare-fun used_gas_t ((_ BitVec 256) (_ BitVec 256) (_ BitVec 256) (_ BitVec 256) Int) Int)
(declare-fun used_gas_s ((_ BitVec 256) (_ BitVec 256) (_ BitVec 256) (_ BitVec 256) Int) Int)
(assert
 (exists ((x_0 (_ BitVec 256)) (x_1 (_ BitVec 256)) (x_2 (_ BitVec 256)) (x_3 (_ BitVec 256)) )(let (($x3017 (forall ((w (_ BitVec 256)) )(let ((?x5451 (storage_t x_0 x_1 x_2 x_3 3 w)))
 (let ((?x9318 (storage_s x_0 x_1 x_2 x_3 6 w)))
 (= ?x9318 ?x5451))))
 ))
 (let (($x8009 (exc_halt_t 3)))
 (let (($x772 (exc_halt_s 6)))
 (let (($x11159 (= $x772 $x8009)))
 (let (($x6468 (forall ((n (_ BitVec 6)) )(let ((?x6714 (stack_t x_0 x_1 x_2 x_3 3 n)))
 (let ((?x5731 (stack_s x_0 x_1 x_2 x_3 6 n)))
 (let (($x1921 (= ?x5731 ?x6714)))
 (or $x1921 (bvsle (sc_t 3) n))))))
 ))
 (let ((?x6378 (sc_t 3)))
 (let ((?x926 (sc_s 6)))
 (let (($x11025 (= ?x926 ?x6378)))
 (let ((?x3348 (used_gas_t x_0 x_1 x_2 x_3 0)))
 (let ((?x11599 (used_gas_s x_0 x_1 x_2 x_3 0)))
 (let (($x10371 (= ?x11599 ?x3348)))
 (let (($x6098 (forall ((w (_ BitVec 256)) )(let ((?x10443 (storage_t x_0 x_1 x_2 x_3 0 w)))
 (let ((?x300 (storage_s x_0 x_1 x_2 x_3 0 w)))
 (= ?x300 ?x10443))))
 ))
 (let (($x56 (exc_halt_t 0)))
 (let (($x57 (exc_halt_s 0)))
 (let (($x58 (= $x57 $x56)))
 (let (($x7763 (forall ((n (_ BitVec 6)) )(let ((?x63 (sc_t 0)))
 (let (($x4036 (bvsle ?x63 n)))
 (let ((?x8090 (stack_t x_0 x_1 x_2 x_3 0 n)))
 (let ((?x10362 (stack_s x_0 x_1 x_2 x_3 0 n)))
 (let (($x2699 (= ?x10362 ?x8090)))
 (or $x2699 $x4036)))))))
 ))
 (let ((?x63 (sc_t 0)))
 (let ((?x72 (sc_s 0)))
 (let (($x73 (= ?x72 ?x63)))
 (let (($x8537 (= $x8009 (or (exc_halt_t 2) (not (bvsle (_ bv0 6) (bvadd (_ bv62 6) (sc_t 2))))))))
 (let (($x7857 (forall ((w (_ BitVec 256)) )(let ((?x1239 (storage_t x_0 x_1 x_2 x_3 2 w)))
 (let ((?x5451 (storage_t x_0 x_1 x_2 x_3 3 w)))
 (= ?x5451 ?x1239))))
 ))
 (let (($x952 (forall ((n (_ BitVec 6)) )(let ((?x3442 (stack_t x_0 x_1 x_2 x_3 2 n)))
 (let ((?x6714 (stack_t x_0 x_1 x_2 x_3 3 n)))
 (or (bvsle (bvadd (_ bv62 6) (sc_t 2)) n) (= ?x6714 ?x3442)))))
 ))
 (let ((?x4056 (sc_t 2)))
 (let ((?x2982 (bvadd (_ bv63 6) ?x4056)))
 (let (($x2700 (= ?x6378 ?x2982)))
 (let (($x11469 (= (used_gas_t x_0 x_1 x_2 x_3 3) (+ 3 (used_gas_t x_0 x_1 x_2 x_3 2)))))
 (let ((?x4932 (stack_t x_0 x_1 x_2 x_3 2 ?x2982)))
 (let ((?x11448 (ite (= ?x4932 (stack_t x_0 x_1 x_2 x_3 2 (bvadd (_ bv62 6) ?x4056))) (_ bv1 256) (_ bv0 256))))
 (let (($x10206 (not (= ((_ extract 6 6) (bvadd (_ bv1 7) (concat (_ bv0 1) (sc_t 1)))) (_ bv0 1)))))
 (let (($x1920 (exc_halt_t 1)))
 (let (($x903 (exc_halt_t 2)))
 (let (($x11770 (forall ((w (_ BitVec 256)) )(let ((?x9602 (storage_t x_0 x_1 x_2 x_3 1 w)))
 (let ((?x1239 (storage_t x_0 x_1 x_2 x_3 2 w)))
 (= ?x1239 ?x9602))))
 ))
 (let (($x11385 (forall ((n (_ BitVec 6)) )(let ((?x5794 (stack_t x_0 x_1 x_2 x_3 1 n)))
 (let ((?x3442 (stack_t x_0 x_1 x_2 x_3 2 n)))
 (or (bvsle (bvadd (_ bv59 6) (sc_t 1)) n) (= ?x3442 ?x5794)))))
 ))
 (let (($x7668 (= ?x4056 (bvadd (_ bv1 6) (sc_t 1)))))
 (let ((?x4339 (used_gas_t x_0 x_1 x_2 x_3 2)))
 (let ((?x4023 (sc_t 1)))
 (let ((?x7819 (bvadd (_ bv63 6) ?x4023)))
 (let ((?x622 (stack_t x_0 x_1 x_2 x_3 1 ?x7819)))
 (let (($x11799 (= (stack_t x_0 x_1 x_2 x_3 2 (bvadd (_ bv62 6) ?x4023)) (stack_t x_0 x_1 x_2 x_3 1 (bvadd (_ bv62 6) ?x4023)))))
 (let (($x4689 (= (stack_t x_0 x_1 x_2 x_3 2 (bvadd (_ bv61 6) ?x4023)) (stack_t x_0 x_1 x_2 x_3 1 (bvadd (_ bv61 6) ?x4023)))))
 (let (($x4585 (= (stack_t x_0 x_1 x_2 x_3 2 (bvadd (_ bv60 6) ?x4023)) (stack_t x_0 x_1 x_2 x_3 1 (bvadd (_ bv60 6) ?x4023)))))
 (let ((?x8612 (bvadd (_ bv59 6) ?x4023)))
 (let ((?x2433 (stack_t x_0 x_1 x_2 x_3 1 ?x8612)))
 (let (($x5983 (not (= ((_ extract 6 6) (bvadd (_ bv1 7) (concat (_ bv0 1) ?x63))) (_ bv0 1)))))
 (let (($x2598 (forall ((w (_ BitVec 256)) )(let ((?x10443 (storage_t x_0 x_1 x_2 x_3 0 w)))
 (let ((?x9602 (storage_t x_0 x_1 x_2 x_3 1 w)))
 (= ?x9602 ?x10443))))
 ))
 (let (($x2811 (forall ((n (_ BitVec 6)) )(let ((?x8090 (stack_t x_0 x_1 x_2 x_3 0 n)))
 (let ((?x5794 (stack_t x_0 x_1 x_2 x_3 1 n)))
 (or (= ?x5794 ?x8090) (bvsle (bvadd (_ bv61 6) (sc_t 0)) n)))))
 ))
 (let (($x7805 (= ?x4023 (bvadd (_ bv1 6) ?x63))))
 (let (($x11388 (= (stack_t x_0 x_1 x_2 x_3 1 (bvadd (_ bv63 6) ?x63)) (stack_t x_0 x_1 x_2 x_3 0 (bvadd (_ bv63 6) ?x63)))))
 (let (($x10576 (= (stack_t x_0 x_1 x_2 x_3 1 (bvadd (_ bv62 6) ?x63)) (stack_t x_0 x_1 x_2 x_3 0 (bvadd (_ bv62 6) ?x63)))))
 (let ((?x10630 (bvadd (_ bv61 6) ?x63)))
 (let ((?x9561 (stack_t x_0 x_1 x_2 x_3 0 ?x10630)))
 (let (($x10430 (= $x772 (or (exc_halt_s 5) (not (bvsle (_ bv0 6) (bvadd (_ bv63 6) (sc_s 5))))))))
 (let (($x9479 (forall ((w (_ BitVec 256)) )(let ((?x9949 (storage_s x_0 x_1 x_2 x_3 5 w)))
 (let ((?x9318 (storage_s x_0 x_1 x_2 x_3 6 w)))
 (= ?x9318 ?x9949))))
 ))
 (let (($x8773 (forall ((n (_ BitVec 6)) )(let ((?x5843 (stack_s x_0 x_1 x_2 x_3 5 n)))
 (let ((?x5731 (stack_s x_0 x_1 x_2 x_3 6 n)))
 (or (bvsle (bvadd (_ bv63 6) (sc_s 5)) n) (= ?x5731 ?x5843)))))
 ))
 (let ((?x805 (sc_s 5)))
 (let (($x421 (= ?x926 ?x805)))
 (let (($x9377 (= (used_gas_s x_0 x_1 x_2 x_3 6) (+ 3 (used_gas_s x_0 x_1 x_2 x_3 5)))))
 (let ((?x7550 (ite (= (stack_s x_0 x_1 x_2 x_3 5 (bvadd (_ bv63 6) ?x805)) (_ bv0 256)) (_ bv1 256) (_ bv0 256))))
 (let (($x3979 (exc_halt_s 5)))
 (let (($x8110 (= $x3979 (or (exc_halt_s 4) (not (bvsle (_ bv0 6) (bvadd (_ bv62 6) (sc_s 4))))))))
 (let (($x1659 (forall ((w (_ BitVec 256)) )(let ((?x8728 (storage_s x_0 x_1 x_2 x_3 4 w)))
 (let ((?x9949 (storage_s x_0 x_1 x_2 x_3 5 w)))
 (= ?x9949 ?x8728))))
 ))
 (let (($x2029 (forall ((n (_ BitVec 6)) )(let ((?x4305 (sc_s 4)))
 (let ((?x6694 (bvadd (_ bv62 6) ?x4305)))
 (let (($x10150 (bvsle ?x6694 n)))
 (let ((?x9327 (stack_s x_0 x_1 x_2 x_3 4 n)))
 (let ((?x5843 (stack_s x_0 x_1 x_2 x_3 5 n)))
 (or (= ?x5843 ?x9327) $x10150)))))))
 ))
 (let ((?x9362 (used_gas_s x_0 x_1 x_2 x_3 5)))
 (let ((?x4305 (sc_s 4)))
 (let ((?x7778 (bvadd (_ bv63 6) ?x4305)))
 (let ((?x10220 (stack_s x_0 x_1 x_2 x_3 4 ?x7778)))
 (let ((?x7711 (ite (bvule ?x10220 (stack_s x_0 x_1 x_2 x_3 4 (bvadd (_ bv62 6) ?x4305))) (_ bv0 256) (_ bv1 256))))
 (let ((?x2686 (bvadd (_ bv63 6) ?x805)))
 (let ((?x11443 (stack_s x_0 x_1 x_2 x_3 5 ?x2686)))
 (let (($x64 (exc_halt_s 4)))
 (let (($x8448 (= $x64 (or (exc_halt_s 3) (not (bvsle (_ bv0 6) (bvadd (_ bv62 6) (sc_s 3))))))))
 (let (($x1037 (forall ((w (_ BitVec 256)) )(let ((?x10636 (storage_s x_0 x_1 x_2 x_3 3 w)))
 (let ((?x8728 (storage_s x_0 x_1 x_2 x_3 4 w)))
 (= ?x8728 ?x10636))))
 ))
 (let (($x795 (forall ((n (_ BitVec 6)) )(let ((?x275 (sc_s 3)))
 (let ((?x10770 (bvadd (_ bv62 6) ?x275)))
 (let (($x6326 (bvsle ?x10770 n)))
 (let ((?x9513 (stack_s x_0 x_1 x_2 x_3 3 n)))
 (let ((?x9327 (stack_s x_0 x_1 x_2 x_3 4 n)))
 (or (= ?x9327 ?x9513) $x6326)))))))
 ))
 (let ((?x9025 (used_gas_s x_0 x_1 x_2 x_3 4)))
 (let ((?x1786 (bvmul (_ bv115792089237316195423570985008687907853269984665640564039457584007913129639935 256) (stack_s x_0 x_1 x_2 x_3 3 (bvadd (_ bv62 6) (sc_s 3))))))
 (let ((?x275 (sc_s 3)))
 (let ((?x7617 (bvadd (_ bv63 6) ?x275)))
 (let ((?x11427 (stack_s x_0 x_1 x_2 x_3 3 ?x7617)))
 (let (($x8415 (not (= ((_ extract 6 6) (bvadd (_ bv1 7) (concat (_ bv0 1) (sc_s 2)))) (_ bv0 1)))))
 (let (($x247 (exc_halt_s 2)))
 (let (($x292 (exc_halt_s 3)))
 (let (($x11683 (forall ((w (_ BitVec 256)) )(let ((?x8753 (storage_s x_0 x_1 x_2 x_3 2 w)))
 (let ((?x10636 (storage_s x_0 x_1 x_2 x_3 3 w)))
 (= ?x10636 ?x8753))))
 ))
 (let (($x2941 (forall ((n (_ BitVec 6)) )(let ((?x2890 (stack_s x_0 x_1 x_2 x_3 2 n)))
 (let ((?x9513 (stack_s x_0 x_1 x_2 x_3 3 n)))
 (or (bvsle (bvadd (_ bv58 6) (sc_s 2)) n) (= ?x9513 ?x2890)))))
 ))
 (let (($x7531 (= ?x275 (bvadd (_ bv1 6) (sc_s 2)))))
 (let ((?x9368 (used_gas_s x_0 x_1 x_2 x_3 3)))
 (let ((?x218 (sc_s 2)))
 (let ((?x3337 (bvadd (_ bv63 6) ?x218)))
 (let ((?x3245 (stack_s x_0 x_1 x_2 x_3 2 ?x3337)))
 (let (($x2944 (= (stack_s x_0 x_1 x_2 x_3 3 (bvadd (_ bv62 6) ?x218)) (stack_s x_0 x_1 x_2 x_3 2 (bvadd (_ bv62 6) ?x218)))))
 (let (($x2681 (= (stack_s x_0 x_1 x_2 x_3 3 (bvadd (_ bv61 6) ?x218)) (stack_s x_0 x_1 x_2 x_3 2 (bvadd (_ bv61 6) ?x218)))))
 (let (($x10340 (= (stack_s x_0 x_1 x_2 x_3 3 (bvadd (_ bv60 6) ?x218)) (stack_s x_0 x_1 x_2 x_3 2 (bvadd (_ bv60 6) ?x218)))))
 (let (($x10388 (= (stack_s x_0 x_1 x_2 x_3 3 (bvadd (_ bv59 6) ?x218)) (stack_s x_0 x_1 x_2 x_3 2 (bvadd (_ bv59 6) ?x218)))))
 (let ((?x6495 (bvadd (_ bv58 6) ?x218)))
 (let ((?x1056 (stack_s x_0 x_1 x_2 x_3 2 ?x6495)))
 (let (($x9045 (not (= ((_ extract 6 6) (bvadd (_ bv1 7) (concat (_ bv0 1) (sc_s 1)))) (_ bv0 1)))))
 (let (($x189 (exc_halt_s 1)))
 (let (($x11832 (forall ((w (_ BitVec 256)) )(let ((?x11748 (storage_s x_0 x_1 x_2 x_3 1 w)))
 (let ((?x8753 (storage_s x_0 x_1 x_2 x_3 2 w)))
 (= ?x8753 ?x11748))))
 ))
 (let (($x6825 (forall ((n (_ BitVec 6)) )(let ((?x11713 (stack_s x_0 x_1 x_2 x_3 1 n)))
 (let ((?x2890 (stack_s x_0 x_1 x_2 x_3 2 n)))
 (or (= ?x2890 ?x11713) (bvsle (bvadd (_ bv60 6) (sc_s 1)) n)))))
 ))
 (let (($x2524 (= ?x218 (bvadd (_ bv1 6) (sc_s 1)))))
 (let ((?x5780 (used_gas_s x_0 x_1 x_2 x_3 2)))
 (let (($x2484 (= (stack_s x_0 x_1 x_2 x_3 2 (bvadd (_ bv63 6) (sc_s 1))) (stack_s x_0 x_1 x_2 x_3 1 (bvadd (_ bv63 6) (sc_s 1))))))
 (let (($x11566 (= (stack_s x_0 x_1 x_2 x_3 2 (bvadd (_ bv62 6) (sc_s 1))) (stack_s x_0 x_1 x_2 x_3 1 (bvadd (_ bv62 6) (sc_s 1))))))
 (let (($x6111 (= (stack_s x_0 x_1 x_2 x_3 2 (bvadd (_ bv61 6) (sc_s 1))) (stack_s x_0 x_1 x_2 x_3 1 (bvadd (_ bv61 6) (sc_s 1))))))
 (let ((?x154 (sc_s 1)))
 (let ((?x2254 (bvadd (_ bv60 6) ?x154)))
 (let ((?x1245 (stack_s x_0 x_1 x_2 x_3 1 ?x2254)))
 (let (($x4103 (= $x189 (or $x57 (not (= ((_ extract 6 6) (bvadd (_ bv1 7) (concat (_ bv0 1) ?x72))) (_ bv0 1)))))))
 (let (($x1738 (forall ((w (_ BitVec 256)) )(let ((?x300 (storage_s x_0 x_1 x_2 x_3 0 w)))
 (let ((?x11748 (storage_s x_0 x_1 x_2 x_3 1 w)))
 (= ?x11748 ?x300))))
 ))
 (let (($x11459 (forall ((n (_ BitVec 6)) )(let ((?x72 (sc_s 0)))
 (let (($x2948 (bvsle ?x72 n)))
 (let ((?x10362 (stack_s x_0 x_1 x_2 x_3 0 n)))
 (let ((?x11713 (stack_s x_0 x_1 x_2 x_3 1 n)))
 (or (= ?x11713 ?x10362) $x2948))))))
 ))
 (let (($x6822 (= ?x154 (bvadd (_ bv1 6) ?x72))))
 (let (($x3914 (forall ((w (_ BitVec 256)) )(let ((?x300 (storage_s x_0 x_1 x_2 x_3 0 w)))
 (= ?x300 (_ bv0 256))))
 ))
 (let (($x5565 (= ?x11599 0)))
 (let (($x4562 (not $x57)))
 (let (($x5477 (= (stack_s x_0 x_1 x_2 x_3 0 (_ bv3 6)) x_3)))
 (let (($x8719 (= (stack_s x_0 x_1 x_2 x_3 0 (_ bv2 6)) x_2)))
 (let (($x1170 (= (stack_s x_0 x_1 x_2 x_3 0 (_ bv1 6)) x_1)))
 (let (($x7988 (= (stack_s x_0 x_1 x_2 x_3 0 (_ bv0 6)) x_0)))
 (let (($x1399 (= ?x72 (_ bv4 6))))
 (and $x1399 $x7988 $x1170 $x8719 $x5477 $x4562 $x5565 $x3914 (= (stack_s x_0 x_1 x_2 x_3 1 ?x72) (_ bv0 256)) (= (used_gas_s x_0 x_1 x_2 x_3 1) (+ 3 ?x11599)) $x6822 $x11459 $x1738 $x4103 (= ?x3245 ?x1245) (= (stack_s x_0 x_1 x_2 x_3 2 ?x2254) ?x1245) $x6111 $x11566 $x2484 (= ?x5780 (+ 3 (used_gas_s x_0 x_1 x_2 x_3 1))) $x2524 $x6825 $x11832 (= $x247 (or $x189 $x9045 (not (bvsle (_ bv0 6) ?x2254)))) (= ?x11427 ?x1056) (= (stack_s x_0 x_1 x_2 x_3 3 ?x6495) ?x1056) $x10388 $x10340 $x2681 $x2944 (= (stack_s x_0 x_1 x_2 x_3 3 ?x3337) ?x3245) (= ?x9368 (+ 3 ?x5780)) $x7531 $x2941 $x11683 (= $x292 (or $x247 (not (bvsle (_ bv0 6) ?x6495)) $x8415)) (= ?x10220 (bvadd ?x11427 ?x1786)) (= ?x9025 (+ 3 ?x9368)) (= ?x4305 ?x7617) $x795 $x1037 $x8448 (= ?x11443 ?x7711) (= ?x9362 (+ 3 ?x9025)) (= ?x805 ?x7778) $x2029 $x1659 $x8110 (= (stack_s x_0 x_1 x_2 x_3 6 (bvadd (_ bv63 6) ?x926)) ?x7550) $x9377 $x421 $x8773 $x9479 $x10430 (= ?x622 ?x9561) (= (stack_t x_0 x_1 x_2 x_3 1 ?x10630) ?x9561) $x10576 $x11388 (= (used_gas_t x_0 x_1 x_2 x_3 1) (+ 3 ?x3348)) $x7805 $x2811 $x2598 (= $x1920 (or $x56 $x5983 (not (bvsle (_ bv0 6) ?x10630)))) (= ?x4932 ?x2433) (= (stack_t x_0 x_1 x_2 x_3 2 ?x8612) ?x2433) $x4585 $x4689 $x11799 (= (stack_t x_0 x_1 x_2 x_3 2 ?x7819) ?x622) (= ?x4339 (+ 3 (used_gas_t x_0 x_1 x_2 x_3 1))) $x7668 $x11385 $x11770 (= $x903 (or $x1920 (not (bvsle (_ bv0 6) ?x8612)) $x10206)) (= (stack_t x_0 x_1 x_2 x_3 3 (bvadd (_ bv63 6) ?x6378)) ?x11448) $x11469 $x2700 $x952 $x7857 $x8537 $x73 $x7763 $x58 $x6098 $x10371 (not (and $x11025 $x6468 $x11159 $x3017))))))))))))))))))))))))))))))))))))))))))))))))))))))))))))))))))))))))))))))))))))))))))))))))))))))))))))))))))))))))))
 )
(check-sat)
(get-proof)
